bachelor/Metodos_de_Apoio_a_Decisao_AMPL/gpart.dat
data;
set V:= a b c d e f;
set E:= 
(a,e)
(a,d)
(a,b)
(b,c)
(b,e)
(c,d)
(c,f)
(d,e)
(d,f)
(e,f);
